nbNodes = 12;
nbVehi = 3;
nbServi = 5;

e = 
 [|    0,  477,   58,   89,  227,  222,  266,  251,   17,  129,  257,    0,
 |    0,  360,  292,  370,  332,  100,  313,  276,  130,  287,   24,    0,
 |    0,  160,  173,   50,  297,  418,  217,  262,  165,  427,  208,    0,
 |    0,  120,  142,  442,  311,  179,  306,  176,  299,  204,  405,    0,
 |    0,  203,  453,  184,  165,  183,  191,  443,  234,  155,  186,    0,
 |];

l = 
 [| 480, 523, 109, 135, 284, 268, 317, 282,  71, 187, 300, 480,
 | 480, 395, 343, 418, 380, 149, 357, 326, 178, 346,  56, 480,
 | 480, 199, 209,  90, 331, 476, 275, 293, 211, 471, 253, 480,
 | 480, 162, 177, 473, 347, 214, 349, 234, 349, 250, 447, 480,
 | 480, 243, 492, 241, 223, 237, 232, 481, 269, 192, 224, 480,
 |];

a = 
 [|  1,  1,  1,  1,  1,
 |  1,  1,  1,  1,  1,
 |  1,  1,  1,  1,  1,
 |];

p = array3d(1..nbNodes,1..nbVehi,1..nbServi,
[  0,  0,  0,  0,  0,	  0,  0,  0,  0,  0,	  0,  0,  0,  0,  0,	
  6, 12, 24, 29, 26,	 12, 20,  9,  8,  6,	  9, 12, 12, 13, 19,	
  9,  7, 28,  8, 28,	 18, 26, 20, 19, 14,	 23, 28,  5, 20,  7,	
 16, 24, 16, 12, 23,	 12, 20, 14, 18, 23,	 15, 22,  8, 24,  7,	
 24, 29,  9, 22,  7,	  8, 12, 28, 25, 26,	 14, 18, 24, 15, 11,	
 28, 28,  5, 14, 10,	 23, 23, 27,  7, 13,	 23, 19,  5, 26, 14,	
  9, 22, 13, 16, 14,	 17, 19, 21, 17, 16,	 19, 27,  5, 13, 12,	
 11, 11, 12, 13, 22,	 17,  6, 15, 17, 11,	 25, 10, 25, 27,  8,	
  9,  6, 25, 19, 17,	 11,  8,  8, 27, 21,	 20, 18, 18, 22, 26,	
 27,  5,  9,  9, 13,	 28, 23, 16, 15, 10,	 22, 10, 15, 20,  7,	
 18, 26,  8, 15, 18,	 23, 21, 21, 26, 20,	 12, 18,  8, 27, 10,	
  0,  0,  0,  0,  0,	  0,  0,  0,  0,  0,	  0,  0,  0,  0,  0,	
]);

rs = 
[|true,true,true,true,true,
 |false,false,false,false,true,
 |true,false,false,false,false,
 |false,false,true,false,false,
 |false,false,false,true,false,
 |false,false,false,true,false,
 |true,false,false,false,false,
 |false,false,true,false,false,
 |true,false,false,false,false,
 |true,false,false,false,false,
 |false,false,true,false,false,
 |true,true,true,true,true,
 |];

d=[|0, 6, 16, 0, 13, 6, 18, 27, 18, 26, 14, 0, 
|6, 0, 10, 6, 18, 12, 12, 21, 17, 32, 21, 6, 
|16, 10, 0, 16, 29, 20, 15, 10, 25, 37, 31, 16, 
|0, 6, 16, 0, 13, 6, 18, 27, 18, 26, 14, 0, 
|13, 18, 29, 13, 0, 13, 25, 39, 19, 25, 5, 13, 
|6, 12, 20, 6, 13, 0, 24, 30, 23, 20, 12, 6, 
|18, 12, 15, 18, 25, 24, 0, 22, 12, 44, 30, 18, 
|27, 21, 10, 27, 39, 30, 22, 0, 34, 46, 42, 27, 
|18, 17, 25, 18, 19, 23, 12, 34, 0, 42, 24, 18, 
|26, 32, 37, 26, 25, 20, 44, 46, 42, 0, 21, 26, 
|14, 21, 31, 14, 5, 12, 30, 42, 24, 21, 0, 14, 
|0, 6, 16, 0, 13, 6, 18, 27, 18, 26, 14, 0, 
|];

%coord=[ (0,0), (-6,3), (-10,13), (0,0), (5,-12), (6,1), (-18,0), (-16,22), (-14,-12), (26,3), (10,-11), (0,0), ];

